set I := it ch fr;
set J := bi uc av cs bc;

param A := it 10000 ch 20000 fr 10000;
param B := bi 7100 uc 3400 av 9700 cs 5200 bc 3050;

param W := it 220 ch 180 fr 200;

#param : 	w	a := 
#it			220	10000
#ch			100	20000
#fr			200	10000

param C: 	bi 		uc 		av 		cs 		bc :=
it			5.5		7.5		6.9		8.0		10.3
ch			15		14.3	13.0	16.4	5.0
fr			6.0		7.8		6.3		6.8		11.0
;

param stab_bil := 'it';
param bil1 := 0.25;
param bil2 := 0.30;